NAME : n100w40.003.736.tour
COMMENT : Length = 736
COMMENT : Found by LKH [Keld Helsgaun] Tue May  2 05:18:30 2017
TYPE : TOUR
DIMENSION : 101
TOUR_SECTION
1
42
46
41
4
49
96
71
85
7
45
21
35
22
44
30
15
23
60
67
63
20
76
65
11
59
36
70
62
86
97
48
77
25
74
32
28
92
50
56
13
94
12
95
66
69
91
39
47
3
99
33
87
19
98
90
37
93
53
80
78
8
18
84
24
55
38
72
27
68
52
54
31
29
83
17
89
79
58
5
75
9
10
64
61
100
88
16
51
2
82
43
14
73
57
26
34
40
101
81
6
-1
EOF
